p cnf 13 30
1 -2 0
-1 2 0
3 4 0
-3 -4 0
3 5 6 0
3 -5 -6 0
-3 5 -6 0
-3 -5 6 0
7 8 9 0
7 -8 -9 0
-7 8 -9 0
-7 -8 9 0
1 5 10 0
1 -5 -10 0
-1 5 -10 0
-1 -5 10 0
7 11 0
-7 -11 0
2 10 0
-2 -10 0
12 13 0
-12 -13 0
6 -12 0
-6 12 0
4 8 11 0
4 -8 -11 0
-4 8 -11 0
-4 -8 11 0
9 13 0
-9 -13 0
